p cnf 64 512
1 2 3 4
1 17 33 49
1 17 5 21
1 5 9 13
2 18 34 50
2 18 6 22
2 6 10 14
3 19 35 51
3 19 7 23
3 7 11 15
4 20 36 52
4 20 8 24
4 8 12 16
17 18 19 20
17 33 21 37
17 21 25 29
18 34 22 38
18 22 26 30
19 35 23 39
19 23 27 31
20 36 24 40
20 24 28 32
33 34 35 36
33 37 41 45
34 38 42 46
35 39 43 47
36 40 44 48
49 50 51 52
49 53 57 61
50 54 58 62
51 55 59 63
52 56 60 64
5 6 7 8
5 21 37 53
5 21 9 25
6 22 38 54
6 22 10 26
7 23 39 55
7 23 11 27
8 24 40 56
8 24 12 28
21 22 23 24
21 37 25 41
22 38 26 42
23 39 27 43
24 40 28 44
37 38 39 40
53 54 55 56
9 10 11 12
9 25 41 57
10 26 42 58
11 27 43 59
12 28 44 60
25 26 27 28
41 42 43 44
57 58 59 60
13 14 15 16
13 29 45 61
14 30 46 62
15 31 47 63
16 32 48 64
29 30 31 32
45 46 47 48
61 62 63 64
1 2 -3 -4
1 3 -2 -4
1 4 -2 -3
1 17 -33 -49
1 17 -5 -21
1 33 -17 -49
1 49 -17 -33
1 5 -17 -21
1 5 -9 -13
1 21 -17 -5
1 9 -5 -13
1 13 -5 -9
2 3 -1 -4
2 4 -1 -3
2 18 -34 -50
2 18 -6 -22
2 34 -18 -50
2 50 -18 -34
2 6 -18 -22
2 6 -10 -14
2 22 -18 -6
2 10 -6 -14
2 14 -6 -10
3 4 -1 -2
3 19 -35 -51
3 19 -7 -23
3 35 -19 -51
3 51 -19 -35
3 7 -19 -23
3 7 -11 -15
3 23 -19 -7
3 11 -7 -15
3 15 -7 -11
4 20 -36 -52
4 20 -8 -24
4 36 -20 -52
4 52 -20 -36
4 8 -20 -24
4 8 -12 -16
4 24 -20 -8
4 12 -8 -16
4 16 -8 -12
17 18 -19 -20
17 19 -18 -20
17 20 -18 -19
17 33 -1 -49
17 33 -21 -37
17 49 -1 -33
17 5 -1 -21
17 21 -1 -5
17 21 -33 -37
17 21 -25 -29
17 37 -33 -21
17 25 -21 -29
17 29 -21 -25
18 19 -17 -20
18 20 -17 -19
18 34 -2 -50
18 34 -22 -38
18 50 -2 -34
18 6 -2 -22
18 22 -2 -6
18 22 -34 -38
18 22 -26 -30
18 38 -34 -22
18 26 -22 -30
18 30 -22 -26
19 20 -17 -18
19 35 -3 -51
19 35 -23 -39
19 51 -3 -35
19 7 -3 -23
19 23 -3 -7
19 23 -35 -39
19 23 -27 -31
19 39 -35 -23
19 27 -23 -31
19 31 -23 -27
20 36 -4 -52
20 36 -24 -40
20 52 -4 -36
20 8 -4 -24
20 24 -4 -8
20 24 -36 -40
20 24 -28 -32
20 40 -36 -24
20 28 -24 -32
20 32 -24 -28
33 34 -35 -36
33 35 -34 -36
33 36 -34 -35
33 49 -1 -17
33 21 -17 -37
33 37 -17 -21
33 37 -41 -45
33 41 -37 -45
33 45 -37 -41
34 35 -33 -36
34 36 -33 -35
34 50 -2 -18
34 22 -18 -38
34 38 -18 -22
34 38 -42 -46
34 42 -38 -46
34 46 -38 -42
35 36 -33 -34
35 51 -3 -19
35 23 -19 -39
35 39 -19 -23
35 39 -43 -47
35 43 -39 -47
35 47 -39 -43
36 52 -4 -20
36 24 -20 -40
36 40 -20 -24
36 40 -44 -48
36 44 -40 -48
36 48 -40 -44
49 50 -51 -52
49 51 -50 -52
49 52 -50 -51
49 53 -57 -61
49 57 -53 -61
49 61 -53 -57
50 51 -49 -52
50 52 -49 -51
50 54 -58 -62
50 58 -54 -62
50 62 -54 -58
51 52 -49 -50
51 55 -59 -63
51 59 -55 -63
51 63 -55 -59
52 56 -60 -64
52 60 -56 -64
52 64 -56 -60
5 6 -7 -8
5 7 -6 -8
5 8 -6 -7
5 21 -1 -17
5 21 -37 -53
5 21 -9 -25
5 37 -21 -53
5 53 -21 -37
5 9 -1 -13
5 9 -21 -25
5 25 -21 -9
5 13 -1 -9
6 7 -5 -8
6 8 -5 -7
6 22 -2 -18
6 22 -38 -54
6 22 -10 -26
6 38 -22 -54
6 54 -22 -38
6 10 -2 -14
6 10 -22 -26
6 26 -22 -10
6 14 -2 -10
7 8 -5 -6
7 23 -3 -19
7 23 -39 -55
7 23 -11 -27
7 39 -23 -55
7 55 -23 -39
7 11 -3 -15
7 11 -23 -27
7 27 -23 -11
7 15 -3 -11
8 24 -4 -20
8 24 -40 -56
8 24 -12 -28
8 40 -24 -56
8 56 -24 -40
8 12 -4 -16
8 12 -24 -28
8 28 -24 -12
8 16 -4 -12
21 22 -23 -24
21 23 -22 -24
21 24 -22 -23
21 37 -17 -33
21 37 -5 -53
21 37 -25 -41
21 53 -5 -37
21 9 -5 -25
21 25 -17 -29
21 25 -5 -9
21 25 -37 -41
21 41 -37 -25
21 29 -17 -25
22 23 -21 -24
22 24 -21 -23
22 38 -18 -34
22 38 -6 -54
22 38 -26 -42
22 54 -6 -38
22 10 -6 -26
22 26 -18 -30
22 26 -6 -10
22 26 -38 -42
22 42 -38 -26
22 30 -18 -26
23 24 -21 -22
23 39 -19 -35
23 39 -7 -55
23 39 -27 -43
23 55 -7 -39
23 11 -7 -27
23 27 -19 -31
23 27 -7 -11
23 27 -39 -43
23 43 -39 -27
23 31 -19 -27
24 40 -20 -36
24 40 -8 -56
24 40 -28 -44
24 56 -8 -40
24 12 -8 -28
24 28 -20 -32
24 28 -8 -12
24 28 -40 -44
24 44 -40 -28
24 32 -20 -28
37 38 -39 -40
37 39 -38 -40
37 40 -38 -39
37 53 -5 -21
37 25 -21 -41
37 41 -33 -45
37 41 -21 -25
37 45 -33 -41
38 39 -37 -40
38 40 -37 -39
38 54 -6 -22
38 26 -22 -42
38 42 -34 -46
38 42 -22 -26
38 46 -34 -42
39 40 -37 -38
39 55 -7 -23
39 27 -23 -43
39 43 -35 -47
39 43 -23 -27
39 47 -35 -43
40 56 -8 -24
40 28 -24 -44
40 44 -36 -48
40 44 -24 -28
40 48 -36 -44
53 54 -55 -56
53 55 -54 -56
53 56 -54 -55
53 57 -49 -61
53 61 -49 -57
54 55 -53 -56
54 56 -53 -55
54 58 -50 -62
54 62 -50 -58
55 56 -53 -54
55 59 -51 -63
55 63 -51 -59
56 60 -52 -64
56 64 -52 -60
9 10 -11 -12
9 11 -10 -12
9 12 -10 -11
9 25 -5 -21
9 25 -41 -57
9 41 -25 -57
9 57 -25 -41
9 13 -1 -5
10 11 -9 -12
10 12 -9 -11
10 26 -6 -22
10 26 -42 -58
10 42 -26 -58
10 58 -26 -42
10 14 -2 -6
11 12 -9 -10
11 27 -7 -23
11 27 -43 -59
11 43 -27 -59
11 59 -27 -43
11 15 -3 -7
12 28 -8 -24
12 28 -44 -60
12 44 -28 -60
12 60 -28 -44
12 16 -4 -8
25 26 -27 -28
25 27 -26 -28
25 28 -26 -27
25 41 -21 -37
25 41 -9 -57
25 57 -9 -41
25 29 -17 -21
26 27 -25 -28
26 28 -25 -27
26 42 -22 -38
26 42 -10 -58
26 58 -10 -42
26 30 -18 -22
27 28 -25 -26
27 43 -23 -39
27 43 -11 -59
27 59 -11 -43
27 31 -19 -23
28 44 -24 -40
28 44 -12 -60
28 60 -12 -44
28 32 -20 -24
41 42 -43 -44
41 43 -42 -44
41 44 -42 -43
41 57 -9 -25
41 45 -33 -37
42 43 -41 -44
42 44 -41 -43
42 58 -10 -26
42 46 -34 -38
43 44 -41 -42
43 59 -11 -27
43 47 -35 -39
44 60 -12 -28
44 48 -36 -40
57 58 -59 -60
57 59 -58 -60
57 60 -58 -59
57 61 -49 -53
58 59 -57 -60
58 60 -57 -59
58 62 -50 -54
59 60 -57 -58
59 63 -51 -55
60 64 -52 -56
13 14 -15 -16
13 15 -14 -16
13 16 -14 -15
13 29 -45 -61
13 45 -29 -61
13 61 -29 -45
14 15 -13 -16
14 16 -13 -15
14 30 -46 -62
14 46 -30 -62
14 62 -30 -46
15 16 -13 -14
15 31 -47 -63
15 47 -31 -63
15 63 -31 -47
16 32 -48 -64
16 48 -32 -64
16 64 -32 -48
29 30 -31 -32
29 31 -30 -32
29 32 -30 -31
29 45 -13 -61
29 61 -13 -45
30 31 -29 -32
30 32 -29 -31
30 46 -14 -62
30 62 -14 -46
31 32 -29 -30
31 47 -15 -63
31 63 -15 -47
32 48 -16 -64
32 64 -16 -48
45 46 -47 -48
45 47 -46 -48
45 48 -46 -47
45 61 -13 -29
46 47 -45 -48
46 48 -45 -47
46 62 -14 -30
47 48 -45 -46
47 63 -15 -31
48 64 -16 -32
61 62 -63 -64
61 63 -62 -64
61 64 -62 -63
62 63 -61 -64
62 64 -61 -63
63 64 -61 -62
-1 -2 -3 -4
-1 -17 -33 -49
-1 -17 -5 -21
-1 -5 -9 -13
-2 -18 -34 -50
-2 -18 -6 -22
-2 -6 -10 -14
-3 -19 -35 -51
-3 -19 -7 -23
-3 -7 -11 -15
-4 -20 -36 -52
-4 -20 -8 -24
-4 -8 -12 -16
-17 -18 -19 -20
-17 -33 -21 -37
-17 -21 -25 -29
-18 -34 -22 -38
-18 -22 -26 -30
-19 -35 -23 -39
-19 -23 -27 -31
-20 -36 -24 -40
-20 -24 -28 -32
-33 -34 -35 -36
-33 -37 -41 -45
-34 -38 -42 -46
-35 -39 -43 -47
-36 -40 -44 -48
-49 -50 -51 -52
-49 -53 -57 -61
-50 -54 -58 -62
-51 -55 -59 -63
-52 -56 -60 -64
-5 -6 -7 -8
-5 -21 -37 -53
-5 -21 -9 -25
-6 -22 -38 -54
-6 -22 -10 -26
-7 -23 -39 -55
-7 -23 -11 -27
-8 -24 -40 -56
-8 -24 -12 -28
-21 -22 -23 -24
-21 -37 -25 -41
-22 -38 -26 -42
-23 -39 -27 -43
-24 -40 -28 -44
-37 -38 -39 -40
-53 -54 -55 -56
-9 -10 -11 -12
-9 -25 -41 -57
-10 -26 -42 -58
-11 -27 -43 -59
-12 -28 -44 -60
-25 -26 -27 -28
-41 -42 -43 -44
-57 -58 -59 -60
-13 -14 -15 -16
-13 -29 -45 -61
-14 -30 -46 -62
-15 -31 -47 -63
-16 -32 -48 -64
-29 -30 -31 -32
-45 -46 -47 -48
-61 -62 -63 -64
